/*********************************************
 * OPL 12.8.0.0 Data
 * Author: El Grupo
 * Creation Date: May 7, 2019 at 6:36:07 PM
 *********************************************/
/*PRODUCTOS:
1: Nescafe Dolca
2: Nescafe Clasico
3: Nescafe Gold Blend 
...
*/
PRODUCTOS = {1, 2, 3, 4, 5, 6, 7, 8, 9, 10, 11, 12, 13, 14, 15, 16, 17, 18, 19, 20, 21, 22, 23, 24, 25, 26, 27, 28, 29, 30, 31, 32, 33, 34, 35, 36, 37, 38, 39, 40, 41, 42, 43, 44, 45, 46, 47, 48, 49, 50}; 
DISPONIBILIDAD = [1, 1, 1, 1, 1, 1, 1, 1, 1, 1, 1, 1, 1, 1, 1, 1, 1, 1, 1, 1, 1, 1, 1, 1, 1, 1, 1, 1, 1, 1, 1, 1, 1, 1, 1, 1, 1, 1, 1, 1, 1, 1, 1, 1, 1, 1, 1, 1, 1, 1 ]; 
PRECIO_PROMO = [90, 105, 110, 155, 165, 175, 185, 195, 205, 215,  90, 105, 110, 155, 165, 175, 185, 195, 205, 216,  90, 105, 110, 155, 165, 175, 185, 195, 205, 215,  90, 105, 110, 155, 165, 175, 185, 195, 205, 216,  90, 105, 110, 155, 165, 175, 185, 195, 205, 218 ]; 
PRECIO_REGULAR = [100, 120, 150, 160, 170, 180, 190, 200, 210, 220, 100, 120, 150, 160, 170, 180, 190, 200, 210, 221, 100, 120, 150, 160, 170, 180, 190, 200, 210, 220, 100, 120, 150, 160, 170, 180, 190, 200, 210, 221, 100, 120, 150, 160, 170, 180, 190, 200, 210, 220 ]; 
PREFERENCIAS_PROMO = [2,  1,  3,  4,  5,  6,  7,  8,  9, 10, 12, 11, 13, 14, 15, 16, 17, 18, 19, 20, 22, 21, 23, 24, 25, 26, 27, 28, 29, 30, 32, 31, 33, 34, 35, 36, 37, 38, 39, 40, 41, 42, 43, 44, 45, 46, 47, 48, 49, 50 ]; 
PREFERENCIAS_REGULAR = [52, 51, 53, 54, 55, 56, 57, 58, 59, 60, 62, 61, 63, 64, 65, 66, 67, 68, 69, 70, 72, 71, 73, 74, 75, 76, 77, 78, 79, 80, 82, 81, 83, 84, 85, 86, 87, 88, 89, 90, 91, 92, 93, 94, 95, 96, 97, 98, 99, 100  ];

/*Output: Producto 50 a precio promo 218*/
/*Total (root+branch&cut) = */ 